WARNING: for repeatability, setting FPU to use double precision
============================[ Problem Statistics ]=============================
|                                                                             |
|  Number of variables:         14399                                         |
|  Number of clauses:          246503                                         |
|  Parse time:                   0.06 s                                       |
|  Eliminated clauses:           0.03 Mb                                      |
|  Simplification time:          0.07 s                                       |
|                                                                             |
============================[ Search Statistics ]==============================
| Conflicts |          ORIGINAL         |          LEARNT          | Progress |
|           |    Vars  Clauses Literals |    Limit  Clauses Lit/Cl |          |
===============================================================================
|       100 |    1914    15278    46731 |     5601      100     21 | 68.435 % |
|       250 |    1914    15278    46731 |     6162      250     25 | 68.435 % |
|       475 |    1914    15278    46731 |     6778      475     31 | 68.435 % |
|       812 |    1914    15278    46731 |     7456      812     26 | 68.435 % |
|      1318 |    1914    15278    46731 |     8201     1318     33 | 68.435 % |
|      2077 |    1914    15278    46731 |     9021     2077     41 | 68.435 % |
===============================================================================
restarts              : 14
conflicts             : 2343           (15040 /sec)
decisions             : 14217          (0.00 % random) (91260 /sec)
propagations          : 160811         (1032256 /sec)
conflict literals     : 102151         (4.01 % deleted)
Memory used           : 35.00 MB
CPU time              : 0.155786 s

SATISFIABLE
